
Gurobi 9.1.2 (win64) logging started Mon Dec  6 20:09:44 2021

Gurobi Optimizer version 9.1.2 build v9.1.2rc0 (win64)
Thread count: 8 physical cores, 8 logical processors, using up to 8 threads
Optimize a model with 1 rows, 149 columns and 148 nonzeros
Model fingerprint: 0x0f95a9a4
Variable types: 1 continuous, 148 integer (148 binary)
Coefficient statistics:
  Matrix range     [1e+00, 1e+01]
  Objective range  [1e+00, 1e+00]
  Bounds range     [7e+01, 7e+01]
  RHS range        [1e+01, 1e+01]
Presolve time: 0.00s
Presolved: 1 rows, 149 columns, 148 nonzeros
Variable types: 1 continuous, 148 integer (148 binary)

Root simplex log...

Iteration    Objective       Primal Inf.    Dual Inf.      Time
       0   -6.7205294e+01   4.900616e-01   0.000000e+00     15s
       7   -6.4471107e+01   0.000000e+00   0.000000e+00     15s

Root relaxation: objective -6.447111e+01, 7 iterations, 0.00 seconds

    Nodes    |    Current Node    |     Objective Bounds      |     Work
 Expl Unexpl |  Obj  Depth IntInf | Incumbent    BestBd   Gap | It/Node Time

     0     0  -64.47111    0    1          -  -64.47111      -     -   14s
H    0     0                       0.8397356  -64.47111  7778%     -   15s
H    0     0                       0.8157062  -64.47111  8004%     -   15s
     0     0  -35.11537    0    3    0.81571  -35.11537  4405%     -   15s
H    0     0                       0.8132945  -35.11537  4418%     -   16s
H    0     0                       0.7798548  -35.11537  4603%     -   16s
H    0     0                       0.7798548  -35.11537  4603%     -   16s
     0     0  -29.36115    0    4    0.77985  -29.36115  3865%     -   16s
     0     0  -29.33432    0    5    0.77985  -29.33432  3862%     -   17s
     0     0  -26.49629    0    5    0.77985  -26.49629  3498%     -   17s
H    0     0                       0.7798548  -26.49629  3498%     -   17s
     0     0  -25.77384    0    5    0.77985  -25.77384  3405%     -   17s
     0     0  -24.85292    0    7    0.77985  -24.85292  3287%     -   17s
     0     0  -24.57313    0    8    0.77985  -24.57313  3251%     -   17s
     0     0  -24.49698    0    8    0.77985  -24.49698  3241%     -   17s
     0     0  -24.49521    0    9    0.77985  -24.49521  3241%     -   17s
     0     0  -22.73492    0    8    0.77985  -22.73492  3015%     -   17s
     0     0  -22.70900    0    8    0.77985  -22.70900  3012%     -   18s
     0     0  -22.66176    0    7    0.77985  -22.66176  3006%     -   18s
     0     0  -22.53552    0    8    0.77985  -22.53552  2990%     -   18s
     0     0  -22.47963    0    7    0.77985  -22.47963  2983%     -   18s
     0     0  -22.34431    0    7    0.77985  -22.34431  2965%     -   18s
     0     0  -21.97352    0    9    0.77985  -21.97352  2918%     -   18s
H    0     0                       0.7798548  -21.97352  2918%     -   18s
H    0     0                       0.7798548  -19.27162  2571%     -   18s
     0     0  -19.27162    0    6    0.77985  -19.27162  2571%     -   18s
     0     0  -19.27162    0    8    0.77985  -19.27162  2571%     -   18s
H    0     0                       0.7798548  -19.27162  2571%     -   18s
     0     0  -19.27162    0    7    0.77985  -19.27162  2571%     -   18s
     0     0  -19.27162    0    8    0.77985  -19.27162  2571%     -   18s
     0     0  -19.27162    0    9    0.77985  -19.27162  2571%     -   18s
     0     0  -19.27162    0    8    0.77985  -19.27162  2571%     -   18s
     0     0  -19.27162    0    9    0.77985  -19.27162  2571%     -   18s
     0     0  -19.27162    0    8    0.77985  -19.27162  2571%     -   18s
     0     0  -19.27162    0    8    0.77985  -19.27162  2571%     -   18s
     0     0  -19.27162    0    9    0.77985  -19.27162  2571%     -   18s
     0     0  -19.27162    0    9    0.77985  -19.27162  2571%     -   19s
     0     0  -19.27162    0    9    0.77985  -19.27162  2571%     -   19s
     0     2  -19.27162    0    9    0.77985  -19.27162  2571%     -   19s

Cutting planes:
  Gomory: 1
  Cover: 1
  MIR: 10
  Lazy constraints: 14

Explored 138 nodes (640 simplex iterations) in 19.62 seconds
Thread count was 8 (of 8 available processors)

Solution count 4: 0.779855 0.813294 0.815706 0.839736 

Optimal solution found (tolerance 1.00e-04)
Best objective 7.798547856263e-01, best bound 7.798547856263e-01, gap 0.0000%

User-callback calls 563, time in user-callback 23.04 sec
